Route #1: 126 1 117 9 108 40 80 146 78 125 139 70
Route #2: 88 57 2 119 81 89 112 136 76 153 5 47
Route #3: 38 122 69 99 93 36 68 20 75 118 147 15
Route #4: 59 96 102 111 132 86 94 66 28 7 137 92
Route #5: 37 116 19 46 145 127 104 130 124 44 27 101
Route #6: 131 133 50 154 98 123 53 144 85 140 31 23
Route #7: 41 110 54 121 21 135 73 106 3 42 32 143
Route #8: 151 113 82 11 77 45 83 90 51 100 91 129
Route #9: 12 60 109 114 29 58 39 10 134 52 107 18
Route #10: 17 67 4 35 6 115 55 95 105 152 56 61
Route #11: 34 138 25 155 22 30 74 79 84 33 48 72
Route #12: 71 149 8 150 156 24 43 141 64 63 13 148
Route #13: 49 14 120 26 128 142 62 97 87 65 103 16
Cost 16876.000000